NAME: kruskal
TYPE: TSP
COMMENT: 9 cities from the course
DIMENSION: 9
EDGE_WEIGHT_TYPE: E999PLICIT
EDGE_WEIGHT_FORMAT: LOWER_DIAG_ROW 
DISPLAY_DATA_TYPE: TWOD_DISPLAY
EDGE_WEIGHT_SECTION
 0
 4 0
 99999 8 0
 99999 99999 7 0
 99999 99999 99999 9 0
 99999 99999 4 14 10 0
 99999 99999 99999 99999 99999 2 0
 8 11 99999 99999 99999 99999 1 0
 99999 99999 2 99999 99999 99999 6 7 0
DISPLAY_DATA_SECTION
 1 10.0 50.0
 2 20.0 70.0
 3 40.0 70.0
 4 60.0 70.0
 5 70.0 50.0
 6 60.0 30.0
 7 40.0 30.0
 8 20.0 30.0
 9 30.0 50.0
EOF
